************************************************************************
file with basedata            : mm63_.bas
initial value random generator: 87643596
************************************************************************
projects                      :  1
jobs (incl. supersource/sink ):  12
horizon                       :  77
RESOURCES
  - renewable                 :  2   R
  - nonrenewable              :  2   N
  - doubly constrained        :  0   D
************************************************************************
PROJECT INFORMATION:
pronr.  #jobs rel.date duedate tardcost  MPM-Time
    1     10      0       11        5       11
************************************************************************
PRECEDENCE RELATIONS:
jobnr.    #modes  #successors   successors
   0        1          3           1   2   3
   1        3          2           4   9
   2        3          3           6   8   9
   3        3          1           8
   4        3          2           5   6
   5        3          2           7  10
   6        3          1          10
   7        3          1           8
   8        3          1          11
   9        3          1          11
  10        3          1          11
  11        1          0        
************************************************************************
REQUESTS/DURATIONS:
jobnr. mode duration  R 1  R 2  R 3  R 4  E(W 1)
------------------------------------------------------------------------
  0      1     0       0    0    0    0     0
  1      1     6      10    2    4    7    138
  2      1     1       6    5    4    8    23
  3      1     5       8    2    8    8    130
  4      1     1       7    7    7    5    26
  5      1     2      10    3    8    4    50
  6      1     2       9    6    9    7    62
  7      1     1      10    4    7    6    27
  8      1     1       8    7    2    8    25
  9      1     3       5    8    3    9    75
 10      1     2       8    5    6   10    58
 11      1     0       0    0    0    0     0
************************************************************************
RESOURCEAVAILABILITIES:
  R 1
   162
************************************************************************
RESOURCE LIMITS:
jobnr.  l(R 1)  u(R 1)
------------------------------------------------------------------------
  0        0       0
  1       12      23
  2       12      23
  3       13      26
  4       15      26
  5       13      25
  6       17      31
  7       14      27
  8       13      25
  9       14      25
 10       15      29
 11        0       0
************************************************************************
SCENARIOS:
------------------------------------------------------------------------
RESOURCE k = 1
s = 1: (0, 174, 32, 97, 25, 76, 53, 29, 19, 56, 47, 0)
s = 2: (0, 174, 29, 144, 32, 64, 54, 26, 27, 58, 37, 0)
s = 3: (0, 133, 38, 111, 17, 32, 39, 27, 37, 66, 48, 0)
s = 4: (0, 117, 13, 106, 17, 42, 104, 35, 27, 115, 53, 0)
s = 5: (0, 87, 28, 118, 22, 39, 51, 31, 34, 72, 59, 0)
s = 6: (0, 121, 30, 112, 26, 33, 109, 30, 26, 93, 42, 0)
s = 7: (0, 103, 20, 110, 25, 42, 51, 24, 19, 58, 33, 0)
s = 8: (0, 101, 27, 203, 36, 71, 35, 16, 32, 89, 75, 0)
s = 9: (0, 117, 20, 124, 43, 45, 89, 26, 32, 82, 59, 0)
s = 10: (0, 141, 34, 115, 25, 42, 92, 24, 42, 53, 69, 0)
s = 11: (0, 104, 33, 222, 35, 35, 60, 24, 16, 81, 66, 0)
s = 12: (0, 211, 21, 86, 44, 32, 93, 26, 22, 59, 41, 0)
s = 13: (0, 209, 14, 132, 18, 43, 46, 19, 22, 106, 65, 0)
s = 14: (0, 178, 27, 139, 27, 43, 66, 24, 31, 98, 49, 0)
s = 15: (0, 126, 25, 159, 29, 82, 51, 22, 28, 94, 45, 0)
s = 16: (0, 222, 27, 142, 40, 45, 33, 56, 35, 92, 74, 0)
s = 17: (0, 110, 21, 124, 25, 53, 67, 19, 14, 46, 70, 0)
s = 18: (0, 113, 21, 192, 21, 76, 38, 23, 39, 79, 63, 0)
s = 19: (0, 177, 19, 145, 34, 42, 87, 21, 19, 74, 68, 0)
s = 20: (0, 79, 34, 97, 38, 54, 55, 20, 41, 80, 57, 0)
s = 21: (0, 104, 26, 164, 25, 40, 60, 32, 24, 124, 75, 0)
s = 22: (0, 83, 27, 77, 32, 44, 83, 20, 17, 94, 78, 0)
s = 23: (0, 118, 20, 127, 20, 32, 50, 19, 17, 45, 33, 0)
s = 24: (0, 174, 18, 140, 35, 62, 60, 33, 31, 65, 58, 0)
s = 25: (0, 110, 32, 117, 27, 52, 41, 16, 34, 96, 51, 0)
s = 26: (0, 163, 34, 119, 23, 53, 55, 29, 23, 66, 58, 0)
s = 27: (0, 116, 31, 114, 27, 43, 82, 25, 36, 82, 77, 0)
s = 28: (0, 125, 18, 137, 36, 40, 80, 25, 27, 76, 90, 0)
s = 29: (0, 207, 19, 141, 19, 69, 77, 34, 32, 96, 62, 0)
s = 30: (0, 191, 24, 196, 31, 60, 53, 39, 17, 74, 37, 0)
s = 31: (0, 125, 13, 99, 22, 40, 41, 15, 27, 99, 41, 0)
s = 32: (0, 163, 23, 151, 22, 67, 58, 20, 24, 58, 44, 0)
s = 33: (0, 140, 24, 161, 28, 70, 68, 40, 26, 85, 57, 0)
s = 34: (0, 151, 20, 99, 34, 41, 87, 34, 34, 88, 71, 0)
s = 35: (0, 77, 26, 123, 25, 49, 88, 38, 32, 72, 64, 0)
s = 36: (0, 110, 28, 136, 47, 55, 74, 31, 26, 59, 73, 0)
s = 37: (0, 141, 15, 148, 19, 36, 49, 36, 19, 66, 79, 0)
s = 38: (0, 126, 19, 123, 20, 68, 57, 46, 19, 54, 89, 0)
s = 39: (0, 150, 29, 143, 38, 36, 104, 20, 24, 69, 82, 0)
s = 40: (0, 148, 29, 129, 38, 44, 63, 32, 26, 57, 77, 0)
s = 41: (0, 112, 24, 190, 20, 57, 81, 27, 26, 66, 40, 0)
s = 42: (0, 135, 20, 153, 28, 51, 62, 35, 36, 46, 59, 0)
s = 43: (0, 181, 15, 89, 22, 64, 94, 39, 26, 67, 60, 0)
s = 44: (0, 111, 18, 145, 26, 64, 41, 40, 27, 109, 62, 0)
s = 45: (0, 93, 26, 112, 23, 61, 35, 17, 25, 54, 57, 0)
s = 46: (0, 125, 22, 76, 19, 42, 48, 22, 32, 85, 46, 0)
s = 47: (0, 212, 21, 108, 18, 46, 47, 32, 25, 59, 47, 0)
s = 48: (0, 147, 29, 68, 40, 49, 75, 27, 40, 45, 67, 0)
s = 49: (0, 90, 20, 112, 16, 30, 87, 38, 29, 75, 82, 0)
s = 50: (0, 122, 38, 130, 26, 36, 73, 27, 32, 70, 65, 0)
s = 51: (0, 109, 23, 166, 39, 52, 53, 25, 23, 58, 67, 0)
s = 52: (0, 128, 25, 139, 20, 59, 37, 19, 19, 102, 52, 0)
s = 53: (0, 124, 16, 99, 17, 48, 74, 22, 28, 73, 86, 0)
s = 54: (0, 73, 20, 112, 24, 30, 87, 33, 37, 99, 66, 0)
s = 55: (0, 106, 15, 81, 32, 41, 47, 38, 18, 78, 51, 0)
s = 56: (0, 181, 16, 117, 35, 46, 57, 38, 25, 81, 78, 0)
s = 57: (0, 137, 16, 133, 25, 43, 43, 17, 41, 61, 36, 0)
s = 58: (0, 242, 24, 130, 37, 45, 39, 31, 18, 70, 50, 0)
s = 59: (0, 105, 19, 173, 24, 69, 59, 19, 34, 75, 38, 0)
s = 60: (0, 110, 32, 139, 28, 44, 40, 23, 26, 62, 52, 0)
s = 61: (0, 146, 21, 170, 27, 31, 69, 21, 28, 85, 70, 0)
s = 62: (0, 110, 13, 110, 16, 57, 39, 36, 27, 78, 57, 0)
s = 63: (0, 114, 39, 148, 29, 61, 72, 17, 31, 46, 45, 0)
s = 64: (0, 179, 38, 69, 26, 37, 61, 40, 25, 55, 46, 0)
s = 65: (0, 224, 19, 96, 24, 66, 102, 39, 28, 79, 78, 0)
s = 66: (0, 150, 22, 152, 25, 76, 77, 26, 28, 47, 43, 0)
s = 67: (0, 128, 13, 75, 19, 50, 60, 21, 20, 80, 54, 0)
s = 68: (0, 111, 24, 110, 23, 72, 68, 20, 26, 52, 81, 0)
s = 69: (0, 124, 17, 218, 31, 45, 49, 43, 19, 62, 63, 0)
s = 70: (0, 127, 16, 133, 19, 55, 43, 40, 30, 105, 75, 0)
s = 71: (0, 175, 30, 136, 32, 78, 94, 21, 31, 71, 60, 0)
s = 72: (0, 79, 16, 72, 35, 71, 54, 27, 30, 89, 38, 0)
s = 73: (0, 152, 15, 137, 19, 72, 53, 25, 17, 77, 55, 0)
s = 74: (0, 246, 38, 201, 16, 33, 63, 43, 16, 117, 44, 0)
s = 75: (0, 146, 19, 133, 19, 50, 58, 29, 15, 74, 53, 0)
s = 76: (0, 117, 21, 78, 23, 51, 55, 32, 37, 57, 55, 0)
s = 77: (0, 206, 28, 128, 16, 43, 55, 23, 17, 69, 48, 0)
s = 78: (0, 96, 34, 186, 37, 57, 49, 38, 32, 113, 81, 0)
s = 79: (0, 124, 29, 67, 19, 59, 115, 24, 39, 91, 45, 0)
s = 80: (0, 132, 23, 144, 23, 60, 93, 28, 36, 73, 62, 0)
s = 81: (0, 130, 23, 165, 28, 69, 62, 24, 28, 89, 97, 0)
s = 82: (0, 94, 26, 131, 28, 64, 65, 18, 30, 88, 54, 0)
s = 83: (0, 163, 22, 95, 21, 31, 58, 24, 17, 112, 64, 0)
s = 84: (0, 102, 32, 178, 34, 43, 48, 26, 18, 70, 71, 0)
s = 85: (0, 158, 16, 166, 36, 64, 56, 22, 24, 54, 83, 0)
s = 86: (0, 151, 15, 114, 23, 35, 66, 20, 23, 81, 43, 0)
s = 87: (0, 142, 32, 135, 36, 38, 46, 23, 23, 89, 76, 0)
s = 88: (0, 152, 34, 125, 42, 55, 56, 23, 31, 76, 44, 0)
s = 89: (0, 164, 28, 82, 20, 33, 47, 43, 22, 95, 52, 0)
s = 90: (0, 144, 19, 124, 17, 50, 55, 20, 35, 93, 51, 0)
s = 91: (0, 193, 36, 87, 17, 72, 51, 38, 39, 111, 42, 0)
s = 92: (0, 120, 27, 121, 28, 72, 55, 29, 16, 45, 50, 0)
s = 93: (0, 108, 21, 115, 27, 76, 75, 35, 18, 84, 103, 0)
s = 94: (0, 126, 17, 132, 33, 44, 60, 22, 30, 68, 96, 0)
s = 95: (0, 124, 15, 81, 31, 71, 61, 16, 23, 100, 44, 0)
s = 96: (0, 91, 21, 148, 17, 52, 76, 17, 34, 49, 52, 0)
s = 97: (0, 129, 18, 84, 21, 43, 76, 25, 26, 108, 54, 0)
s = 98: (0, 84, 33, 164, 30, 57, 96, 32, 20, 40, 78, 0)
s = 99: (0, 138, 21, 116, 29, 49, 54, 37, 28, 96, 42, 0)
s = 100: (0, 154, 17, 136, 19, 32, 75, 24, 17, 47, 45, 0)
s = 101: (0, 160, 25, 174, 25, 43, 43, 24, 24, 48, 63, 0)
s = 102: (0, 231, 25, 109, 20, 37, 66, 32, 17, 39, 39, 0)
s = 103: (0, 129, 23, 82, 28, 40, 62, 20, 14, 88, 46, 0)
s = 104: (0, 120, 33, 158, 22, 64, 41, 18, 16, 86, 76, 0)
s = 105: (0, 98, 31, 110, 31, 75, 40, 29, 16, 75, 36, 0)
s = 106: (0, 73, 23, 91, 32, 55, 54, 25, 31, 129, 71, 0)
s = 107: (0, 124, 15, 181, 27, 36, 78, 31, 22, 56, 56, 0)
s = 108: (0, 92, 27, 104, 31, 57, 82, 29, 20, 84, 74, 0)
s = 109: (0, 107, 20, 120, 29, 82, 116, 30, 20, 69, 31, 0)
s = 110: (0, 104, 14, 100, 39, 59, 62, 44, 43, 65, 34, 0)
s = 111: (0, 174, 20, 93, 32, 72, 47, 21, 30, 63, 47, 0)
s = 112: (0, 187, 30, 144, 24, 28, 33, 46, 42, 71, 63, 0)
s = 113: (0, 82, 34, 140, 24, 39, 60, 24, 29, 41, 42, 0)
s = 114: (0, 156, 18, 111, 23, 47, 62, 21, 15, 77, 46, 0)
s = 115: (0, 133, 31, 160, 28, 38, 50, 16, 31, 110, 71, 0)
s = 116: (0, 94, 22, 177, 26, 39, 70, 32, 22, 58, 57, 0)
s = 117: (0, 117, 18, 88, 36, 66, 79, 46, 27, 87, 78, 0)
s = 118: (0, 171, 21, 130, 26, 52, 47, 31, 32, 92, 82, 0)
s = 119: (0, 115, 23, 106, 43, 36, 115, 27, 17, 48, 51, 0)
s = 120: (0, 98, 27, 116, 19, 46, 47, 36, 19, 61, 66, 0)
s = 121: (0, 81, 29, 136, 21, 43, 83, 22, 34, 70, 45, 0)
s = 122: (0, 116, 25, 99, 19, 49, 58, 28, 23, 63, 45, 0)
s = 123: (0, 131, 20, 90, 24, 34, 52, 35, 29, 43, 51, 0)
s = 124: (0, 145, 20, 158, 24, 30, 63, 36, 25, 72, 50, 0)
s = 125: (0, 184, 21, 94, 24, 63, 55, 28, 22, 54, 71, 0)
s = 126: (0, 147, 21, 130, 20, 54, 56, 31, 16, 80, 70, 0)
s = 127: (0, 125, 24, 117, 27, 44, 34, 32, 25, 70, 57, 0)
s = 128: (0, 126, 17, 106, 34, 65, 64, 36, 20, 74, 60, 0)
s = 129: (0, 92, 22, 95, 33, 47, 52, 18, 17, 107, 63, 0)
s = 130: (0, 114, 16, 114, 21, 35, 34, 23, 38, 91, 57, 0)
s = 131: (0, 175, 19, 185, 22, 43, 70, 26, 25, 48, 73, 0)
s = 132: (0, 121, 26, 159, 28, 55, 53, 31, 28, 53, 53, 0)
s = 133: (0, 75, 21, 76, 37, 35, 60, 28, 26, 54, 57, 0)
s = 134: (0, 189, 29, 86, 36, 41, 49, 20, 22, 54, 67, 0)
s = 135: (0, 138, 41, 131, 18, 62, 42, 19, 16, 87, 74, 0)
s = 136: (0, 134, 17, 139, 17, 45, 81, 28, 19, 68, 40, 0)
s = 137: (0, 131, 24, 79, 31, 26, 53, 28, 22, 57, 47, 0)
s = 138: (0, 151, 18, 86, 25, 27, 40, 19, 29, 66, 58, 0)
s = 139: (0, 151, 33, 129, 37, 61, 47, 31, 39, 63, 46, 0)
s = 140: (0, 206, 19, 122, 22, 53, 54, 23, 30, 98, 56, 0)
s = 141: (0, 129, 22, 145, 35, 39, 48, 26, 24, 89, 61, 0)
s = 142: (0, 108, 27, 109, 22, 38, 49, 23, 14, 61, 60, 0)
s = 143: (0, 154, 30, 149, 24, 32, 92, 19, 28, 124, 87, 0)
s = 144: (0, 224, 27, 135, 29, 53, 53, 32, 22, 74, 47, 0)
s = 145: (0, 205, 21, 108, 16, 61, 100, 23, 17, 110, 80, 0)
s = 146: (0, 216, 22, 162, 29, 64, 71, 27, 29, 67, 52, 0)
s = 147: (0, 153, 32, 113, 17, 44, 83, 33, 14, 64, 55, 0)
s = 148: (0, 75, 25, 94, 23, 49, 93, 24, 23, 77, 48, 0)
s = 149: (0, 211, 26, 117, 18, 33, 59, 17, 20, 60, 46, 0)
s = 150: (0, 94, 16, 94, 22, 61, 42, 22, 17, 55, 73, 0)
s = 151: (0, 79, 19, 76, 37, 31, 48, 24, 26, 62, 49, 0)
s = 152: (0, 99, 24, 173, 38, 40, 48, 30, 22, 55, 37, 0)
s = 153: (0, 201, 19, 135, 34, 55, 72, 35, 15, 54, 75, 0)
s = 154: (0, 80, 36, 118, 25, 45, 50, 24, 28, 47, 56, 0)
s = 155: (0, 172, 18, 165, 31, 47, 48, 34, 20, 66, 43, 0)
s = 156: (0, 136, 31, 82, 37, 78, 55, 15, 28, 98, 75, 0)
s = 157: (0, 157, 25, 117, 22, 47, 54, 15, 25, 42, 52, 0)
s = 158: (0, 234, 31, 68, 20, 34, 53, 36, 18, 84, 80, 0)
s = 159: (0, 86, 17, 132, 24, 46, 54, 22, 14, 88, 42, 0)
s = 160: (0, 115, 33, 201, 23, 57, 85, 26, 38, 82, 31, 0)
s = 161: (0, 136, 14, 139, 14, 64, 37, 29, 38, 79, 44, 0)
s = 162: (0, 108, 36, 175, 41, 66, 85, 45, 19, 81, 47, 0)
s = 163: (0, 114, 21, 93, 28, 65, 43, 45, 25, 76, 89, 0)
s = 164: (0, 114, 25, 125, 25, 46, 61, 23, 44, 67, 82, 0)
s = 165: (0, 95, 29, 192, 23, 46, 119, 16, 17, 62, 60, 0)
s = 166: (0, 110, 22, 127, 17, 40, 84, 20, 14, 78, 39, 0)
s = 167: (0, 140, 23, 95, 28, 57, 80, 52, 26, 119, 53, 0)
s = 168: (0, 197, 19, 140, 18, 53, 74, 20, 19, 56, 85, 0)
s = 169: (0, 180, 19, 105, 21, 64, 51, 30, 19, 89, 65, 0)
s = 170: (0, 175, 16, 67, 24, 59, 82, 19, 28, 73, 50, 0)
s = 171: (0, 95, 15, 178, 24, 42, 65, 45, 29, 58, 52, 0)
s = 172: (0, 166, 28, 195, 20, 63, 50, 24, 29, 71, 57, 0)
s = 173: (0, 137, 26, 121, 26, 54, 51, 20, 16, 84, 68, 0)
s = 174: (0, 110, 22, 88, 22, 36, 66, 25, 27, 61, 58, 0)
s = 175: (0, 197, 21, 189, 33, 94, 45, 22, 15, 50, 68, 0)
s = 176: (0, 154, 24, 105, 26, 50, 56, 20, 25, 64, 83, 0)
s = 177: (0, 136, 24, 147, 34, 30, 78, 43, 34, 73, 61, 0)
s = 178: (0, 124, 20, 74, 20, 43, 100, 35, 26, 133, 79, 0)
s = 179: (0, 94, 22, 221, 31, 49, 80, 20, 24, 78, 53, 0)
s = 180: (0, 137, 24, 89, 29, 42, 37, 38, 33, 115, 73, 0)
s = 181: (0, 82, 16, 194, 29, 50, 56, 16, 26, 84, 47, 0)
s = 182: (0, 206, 24, 146, 22, 82, 55, 37, 17, 71, 67, 0)
s = 183: (0, 159, 21, 93, 29, 49, 88, 31, 19, 61, 34, 0)
s = 184: (0, 89, 29, 126, 18, 49, 92, 30, 15, 102, 43, 0)
s = 185: (0, 118, 15, 127, 21, 33, 38, 33, 20, 83, 91, 0)
s = 186: (0, 201, 22, 115, 46, 33, 36, 31, 25, 124, 62, 0)
s = 187: (0, 216, 23, 84, 25, 52, 58, 37, 25, 76, 63, 0)
s = 188: (0, 138, 24, 176, 27, 73, 80, 20, 22, 106, 65, 0)
s = 189: (0, 82, 23, 225, 21, 48, 50, 31, 30, 97, 63, 0)
s = 190: (0, 231, 31, 108, 36, 56, 44, 23, 22, 46, 82, 0)
s = 191: (0, 142, 20, 155, 34, 53, 53, 25, 34, 106, 46, 0)
s = 192: (0, 132, 20, 154, 31, 50, 51, 21, 23, 78, 80, 0)
s = 193: (0, 107, 15, 109, 24, 84, 39, 19, 32, 52, 44, 0)
s = 194: (0, 132, 14, 177, 23, 35, 64, 40, 20, 69, 55, 0)
s = 195: (0, 174, 15, 132, 44, 39, 69, 24, 14, 82, 93, 0)
s = 196: (0, 201, 30, 86, 34, 52, 73, 27, 36, 66, 76, 0)
s = 197: (0, 133, 25, 102, 14, 59, 51, 27, 21, 89, 37, 0)
s = 198: (0, 96, 25, 95, 19, 31, 78, 22, 34, 82, 47, 0)
s = 199: (0, 140, 26, 70, 35, 51, 51, 33, 31, 79, 37, 0)
s = 200: (0, 94, 21, 155, 30, 39, 62, 26, 24, 101, 58, 0)
************************************************************************
ES/LS-VALUES:
jobnr.   ES(i)    LS(i)
------------------------------------------------------------------------
  0        0        0
  1        0       55
  2        0       67
  3        0       66
  4       10       66
  5       11       68
  6       11       69
  7       14       72
  8       16       75
  9       10       71
 10       14       73
 11       17       77
************************************************************************
BIG-M-VALUES:
M1 = 21, M2 = 246
************************************************************************
